Geometry = GenFormat{
  <<< 'geometry.gen'
}
Hamiltonian = DFTB{
  SCC = Yes
  SCCTolerance = 1e-06
  MaxSCCIterations = 200
  Mixer = Broyden{}
  ReadInitialCharges = No
  Charge = 1.0
  Filling = Fermi{
    Temperature[K] = 0.0
  }
  MaxAngularMomentum = {
    H = 's'
N = 'p'
C = 'p'
  }
  SlaterKosterFiles = Type2FileNames{
    Prefix = '/home/islee/program/dftb/slko/mio-1-1/'
    Separator = '-'
    Suffix = '.skf'
    LowerCaseTypeName = No
  }
}
Analysis = {
  CalculateForces = Yes
  WriteBandOut = Yes
  WriteEigenvectors = Yes
  MullikenAnalysis = Yes
}
Options = {
  WriteDetailedXml = Yes
  WriteDetailedOut = Yes
  TimingVerbosity = -1
}
ParserOptions = {
  ParserVersion = 7
}
